language Essence 1.3

letting bot_end be [54, 57, 2479, 110, 2474, 55, 2424, 2584, 52, 2477, 2639, 493, 274, 276, 2475; int(1..15)]
letting bot_start be [2477, 2631, 437, 2309, 661, 2516, 269, 65, 2427, 546, 70, 2533, 2478, 2529, 544; int(1..15)]
letting buffer_col be 2
letting buffer_row be 2
letting corridor_size be 1
letting n_shelves_col be 17
letting n_shelves_row be 22
letting shelf_col_size be 2
letting shelf_row_size be 1
